Route #1: 1 12 13 6 2 7 18 29 28 24 36 41 56 57 42 52 43 44 58 61 60 75 80 79 68 74 86 91 87 92 99 88 93 89 76 62 53 45 37 25 14 15 19 30 31 46 47 54 65 71 70 64 63 69 81 94 95 82 90 100 96 83 77 66 72 59 73 84 97 98 85 78 67 55 50 51 40 35 23 22 11 10 21 27 34 39 33 49 38 48 32 26 20 17 5 4 16 9 8 3
Cost 46137
